objective value:                      2.6466957492783
x(0,1,0)                                            1 	(obj:0)
x(1,3,0)                                            1 	(obj:0)
x(2,14,0)                                           1 	(obj:0)
x(3,2,0)                                            1 	(obj:0)
x(4,0,0)                                            1 	(obj:0)
x(14,4,0)                                           1 	(obj:0)
xc(0,5)                                             1 	(obj:0)
xc(1,6)                                             1 	(obj:0)
xc(2,9)                                             1 	(obj:0)
xc(4,14)                                            1 	(obj:0)
u(0,0)                              0.347515814860699 	(obj:0)
u(1,0)                                 1.218934945887 	(obj:0)
u(2,0)                                2.4010812486683 	(obj:0)
u(3,0)                                1.3068544651687 	(obj:0)
u(7,0)                                2.6466957492783 	(obj:0)
u(10,0)                               2.6466957492783 	(obj:0)
u(11,0)                               2.6466957492783 	(obj:0)
u(12,0)                               2.6466957492783 	(obj:0)
u(13,0)                               2.6466957492783 	(obj:0)
u(14,0)                               2.6466957492783 	(obj:0)
u(15,0)                               2.6466957492783 	(obj:0)
u(16,0)                               2.6466957492783 	(obj:0)
u(17,0)                               2.6466957492783 	(obj:0)
u(18,0)                               2.6466957492783 	(obj:0)
u(19,0)                               2.6466957492783 	(obj:0)
f(0,1,0)                                            1 	(obj:0)
f(0,1,4)                                            1 	(obj:0)
f(1,3,0)                                            1 	(obj:0)
f(1,3,1)                                            1 	(obj:0)
f(1,3,4)                                            1 	(obj:0)
f(2,9,0)                                            1 	(obj:0)
f(2,9,1)                                            1 	(obj:0)
f(2,9,2)                                            1 	(obj:0)
f(2,9,3)                                            1 	(obj:0)
f(2,9,4)                                            1 	(obj:0)
f(3,2,0)                                            1 	(obj:0)
f(3,2,1)                                            1 	(obj:0)
f(3,2,3)                                            1 	(obj:0)
f(3,2,4)                                            1 	(obj:0)
f(4,0,4)                                            1 	(obj:0)
z_r(0,)                               2.6466957492783 	(obj:0)
z                                     2.6466957492783 	(obj:1)
